76936894273493184085013,15,1,2,014,12,1,2,014,2,1,2,03,13,1,2,015,10,1,2,013,15,1,2,011,15,1,2,010,9,1,2,04,12,1,2,02,13,1,2,010,10,1,2,014,7,1,2,08,4,1,2,011,15,1,2,09,8,1,2,01,9,1,2,08,8,1,2,09,12,1,2,03,7,1,2,013,13,1,2,01,7,1,2,01,10,1,2,012,14,1,2,09,1,1,2,02,14,1,2,010,1,1,2,02,11,1,2,013,3,1,2,014,15,1,2,011,13,1,2,010,5,1,2,011,15,1,2,014,13,1,2,010,4,1,2,01,5,1,2,014,1,1,2,06,1,1,2,04,8,1,2,014,5,1,2,04,10,1,2,03,6,1,2,012,2,1,2,013,8,1,2,03,9,1,2,03,2,1,2,07,10,1,2,01,5,1,2,06,8,1,2,09,6,1,2,03,12,1,2,0